
n_res = 4;
rcap = [49, 59, 182, 210];
rtype = [1, 1, 2, 2];
n_tasks = 50;
modes =  [{1, 2, 3}, {4, 5, 6}, {7, 8, 9}, {10, 11, 12}, {13, 14, 15}, {16, 17, 18}, {19, 20, 21}, {22, 23, 24}, {25, 26, 27}, {28, 29, 30}, {31, 32, 33}, {34, 35, 36}, {37, 38, 39}, {40, 41, 42}, {43, 44, 45}, {46, 47, 48}, {49, 50, 51}, {52, 53, 54}, {55, 56, 57}, {58, 59, 60}, {61, 62, 63}, {64, 65, 66}, {67, 68, 69}, {70, 71, 72}, {73, 74, 75}, {76, 77, 78}, {79, 80, 81}, {82, 83, 84}, {85, 86, 87}, {88, 89, 90}, {91, 92, 93}, {94, 95, 96}, {97, 98, 99}, {100, 101, 102}, {103, 104, 105}, {106, 107, 108}, {109, 110, 111}, {112, 113, 114}, {115, 116, 117}, {118, 119, 120}, {121, 122, 123}, {124, 125, 126}, {127, 128, 129}, {130, 131, 132}, {133, 134, 135}, {136, 137, 138}, {139, 140, 141}, {142, 143, 144}, {145, 146, 147}, {148, 149, 150}];
succ =  [{50, 49, 47, 44, 35, 33, 30, 27, 24, 21, 20, 18, 15}, {47, 45, 44, 34, 33, 31, 29, 28, 24, 21, 19, 18}, {50, 49, 48, 47, 42, 41, 33, 30, 29, 27, 22}, {50, 49, 48, 47, 33, 32, 29, 28, 26, 23}, {48, 47, 46, 44, 42, 40, 39, 34, 33, 32, 31, 29, 26}, {50, 49, 48, 45, 43, 42, 41, 34, 32, 27, 26}, {47, 46, 44, 31, 21, 18}, {50, 45, 44, 43, 42, 40, 39, 32, 31, 29}, {49, 46, 45, 32, 31, 26, 25}, {43, 41, 40, 33, 30, 29, 24}, {48, 47, 40, 33, 32, 30, 29}, {49, 44, 40, 39, 33, 24}, {48, 43, 42, 39, 32, 29}, {42, 41, 40, 33, 24}, {45, 42, 40, 39, 38, 36, 32}, {45, 44, 41, 40, 39, 38, 32}, {47, 43, 40, 39, 37, 29}, {43, 42, 40, 32, 26}, {43, 42, 41, 39, 38, 37, 36}, {48, 43, 39, 38, 36, 32}, {41, 40, 39, 26}, {45, 44, 39, 36, 32}, {44, 41, 40, 39, 37}, {46, 38, 37, 36}, {33, 30}, {38, 37, 36}, {40, 39, 36}, {43, 42, 40}, {38, 36}, {39, 36}, {41, 36}, {37}, {36}, {38}, {40}, {}, {}, {}, {}, {}, {}, {}, {}, {}, {}, {}, {}, {}, {}, {}];
n_opt = 150;
dur = [3, 6, 10, 6, 7, 8, 1, 2, 3, 4, 5, 8, 3, 6, 7, 2, 3, 7, 3, 3, 7, 9, 9, 10, 1, 2, 6, 4, 7, 8, 7, 7, 10, 4, 5, 6, 4, 8, 9, 2, 3, 10, 3, 4, 5, 1, 1, 6, 7, 7, 9, 3, 6, 7, 2, 4, 8, 1, 2, 9, 1, 2, 3, 2, 7, 10, 2, 7, 10, 1, 4, 10, 1, 1, 6, 5, 7, 7, 2, 6, 9, 2, 5, 7, 1, 7, 10, 1, 5, 7, 1, 3, 10, 6, 8, 10, 1, 2, 9, 1, 1, 2, 3, 7, 8, 4, 5, 8, 1, 5, 9, 3, 7, 9, 3, 6, 10, 4, 7, 9, 2, 4, 6, 2, 3, 3, 8, 9, 10, 5, 8, 9, 5, 8, 10, 5, 7, 9, 6, 6, 7, 3, 5, 6, 6, 8, 8, 2, 2, 2];
rreq = [|5, 4, 0, 10, 0, 0, 0, 9, 0, 5, 0, 0, 8, 5, 3, 9, 0, 0, 0, 0, 0, 6, 0, 0, 8, 0, 8, 0, 0, 0, 0, 0, 0, 8, 0, 0, 0, 7, 6, 0, 0, 3, 0, 0, 0, 0, 0, 6, 0, 5, 3, 1, 0, 1, 7, 0, 0, 0, 0, 0, 4, 0, 0, 10, 4, 2, 4, 0, 1, 0, 4, 4, 0, 0, 4, 5, 0, 0, 6, 4, 0, 10, 0, 10, 0, 0, 0, 10, 9, 0, 0, 0, 7, 0, 0, 7, 0, 0, 5, 2, 1, 1, 8, 6, 0, 0, 0, 4, 4, 3, 0, 8, 0, 8, 0, 0, 8, 0, 0, 6, 0, 6, 0, 0, 0, 6, 0, 0, 0, 8, 5, 5, 8, 0, 5, 6, 6, 6, 4, 0, 2, 0, 0, 0, 8, 7, 0, 0, 4, 0
 |0, 0, 10, 0, 6, 6, 6, 0, 3, 0, 8, 7, 0, 0, 0, 0, 4, 4, 9, 8, 7, 0, 5, 2, 0, 3, 0, 9, 7, 5, 8, 6, 1, 0, 8, 8, 6, 0, 0, 10, 5, 0, 4, 4, 4, 8, 6, 0, 8, 0, 0, 0, 7, 0, 0, 6, 4, 6, 3, 1, 0, 5, 2, 0, 0, 0, 0, 7, 0, 7, 0, 0, 7, 7, 0, 0, 4, 1, 0, 0, 7, 0, 7, 0, 10, 9, 7, 0, 0, 1, 9, 6, 0, 4, 2, 0, 8, 4, 0, 0, 0, 0, 0, 0, 3, 7, 7, 0, 0, 0, 1, 0, 4, 0, 9, 9, 0, 8, 7, 0, 7, 0, 6, 10, 6, 0, 4, 3, 3, 0, 0, 0, 0, 6, 0, 0, 0, 0, 0, 2, 0, 6, 5, 4, 0, 0, 5, 7, 0, 7
 |0, 5, 4, 3, 0, 0, 0, 0, 6, 0, 0, 0, 7, 0, 0, 0, 0, 6, 9, 0, 4, 6, 0, 5, 0, 9, 0, 5, 0, 0, 0, 4, 3, 0, 0, 2, 0, 0, 0, 0, 0, 0, 0, 6, 5, 0, 7, 0, 0, 0, 2, 7, 0, 0, 0, 0, 0, 0, 0, 1, 4, 0, 0, 9, 0, 0, 8, 7, 7, 0, 0, 0, 8, 0, 0, 7, 0, 4, 0, 1, 1, 0, 4, 0, 0, 0, 0, 10, 7, 0, 0, 0, 0, 0, 0, 10, 0, 7, 0, 8, 0, 0, 0, 0, 0, 8, 0, 5, 0, 3, 0, 0, 5, 5, 0, 6, 0, 7, 4, 3, 0, 3, 0, 0, 0, 4, 0, 0, 1, 7, 5, 0, 6, 3, 3, 8, 0, 6, 0, 0, 0, 4, 4, 0, 9, 0, 0, 8, 4, 0
 |9, 0, 0, 0, 6, 3, 5, 3, 0, 6, 6, 5, 0, 5, 3, 4, 3, 0, 0, 2, 0, 0, 4, 0, 9, 0, 5, 0, 2, 1, 5, 0, 0, 4, 2, 0, 6, 3, 2, 6, 6, 6, 10, 0, 0, 2, 0, 2, 9, 8, 0, 0, 9, 8, 7, 5, 5, 3, 2, 0, 0, 3, 3, 0, 5, 4, 0, 0, 0, 3, 2, 1, 0, 5, 2, 0, 1, 0, 2, 0, 0, 5, 0, 4, 7, 5, 3, 0, 0, 6, 10, 10, 10, 8, 6, 0, 8, 0, 4, 0, 10, 9, 3, 3, 3, 0, 7, 0, 9, 0, 7, 5, 0, 0, 8, 0, 7, 0, 0, 0, 5, 0, 2, 4, 4, 0, 6, 4, 0, 0, 0, 4, 0, 0, 0, 0, 7, 0, 10, 4, 3, 0, 0, 7, 0, 3, 3, 0, 0, 5|];